40
1 0 28
2 0 13
2 1 73
3 0 96
3 1 98
3 2 2
4 0 85
4 1 15
4 2 73
4 3 80
5 0 62
5 1 18
5 2 97
5 3 92
5 4 96
6 0 97
6 1 79
6 2 90
6 3 9
6 4 66
6 5 14
7 0 72
7 1 81
7 2 88
7 3 55
7 4 83
7 5 17
7 6 46
8 0 75
8 1 7
8 2 72
8 3 87
8 4 36
8 5 27
8 6 74
8 7 49
9 0 45
9 1 22
9 2 23
9 3 35
9 4 38
9 5 43
9 6 57
9 7 96
9 8 55
10 0 79
10 1 7
10 2 48
10 3 93
10 4 2
10 5 89
10 6 17
10 7 27
10 8 59
10 9 98
11 0 9
11 1 48
11 2 49
11 3 2
11 4 21
11 5 78
11 6 92
11 7 70
11 8 72
11 9 33
11 10 98
12 0 50
12 1 96
12 2 45
12 3 77
12 4 96
12 5 30
12 6 91
12 7 51
12 8 30
12 9 2
12 10 64
12 11 64
13 0 55
13 1 86
13 2 88
13 3 95
13 4 65
13 5 94
13 6 79
13 7 25
13 8 38
13 9 100
13 10 75
13 11 15
13 12 81
14 0 40
14 1 15
14 2 80
14 3 73
14 4 29
14 5 31
14 6 89
14 7 42
14 8 65
14 9 65
14 10 14
14 11 35
14 12 43
14 13 59
15 0 2
15 1 99
15 2 85
15 3 50
15 4 54
15 5 80
15 6 49
15 7 74
15 8 34
15 9 81
15 10 87
15 11 89
15 12 34
15 13 68
15 14 68
16 0 25
16 1 75
16 2 98
16 3 75
16 4 50
16 5 17
16 6 9
16 7 37
16 8 16
16 9 9
16 10 2
16 11 75
16 12 1
16 13 7
16 14 95
16 15 59
17 0 73
17 1 27
17 2 44
17 3 8
17 4 44
17 5 24
17 6 51
17 7 76
17 8 92
17 9 11
17 10 97
17 11 12
17 12 57
17 13 60
17 14 83
17 15 91
17 16 45
18 0 40
18 1 72
18 2 41
18 3 8
18 4 97
18 5 40
18 6 17
18 7 64
18 8 74
18 9 3
18 10 7
18 11 86
18 12 21
18 13 67
18 14 68
18 15 76
18 16 60
18 17 22
19 0 7
19 1 96
19 2 81
19 3 79
19 4 81
19 5 29
19 6 9
19 7 4
19 8 80
19 9 80
19 10 50
19 11 26
19 12 86
19 13 59
19 14 5
19 15 4
19 16 62
19 17 93
19 18 33
20 0 79
20 1 91
20 2 53
20 3 75
20 4 58
20 5 67
20 6 10
20 7 79
20 8 97
20 9 28
20 10 49
20 11 96
20 12 84
20 13 58
20 14 92
20 15 32
20 16 31
20 17 15
20 18 33
20 19 68
21 0 42
21 1 57
21 2 70
21 3 93
21 4 1
21 5 72
21 6 80
21 7 12
21 8 97
21 9 36
21 10 1
21 11 17
21 12 2
21 13 53
21 14 81
21 15 42
21 16 35
21 17 50
21 18 37
21 19 25
21 20 1
22 0 36
22 1 19
22 2 66
22 3 89
22 4 48
22 5 67
22 6 48
22 7 50
22 8 31
22 9 32
22 10 50
22 11 13
22 12 35
22 13 68
22 14 83
22 15 88
22 16 39
22 17 29
22 18 16
22 19 72
22 20 3
22 21 35
23 0 90
23 1 71
23 2 32
23 3 82
23 4 11
23 5 75
23 6 8
23 7 15
23 8 94
23 9 80
23 10 91
23 11 77
23 12 94
23 13 21
23 14 35
23 15 22
23 16 29
23 17 66
23 18 49
23 19 46
23 20 5
23 21 97
23 22 94
24 0 62
24 1 84
24 2 62
24 3 9
24 4 48
24 5 55
24 6 81
24 7 4
24 8 24
24 9 3
24 10 39
24 11 59
24 12 41
24 13 88
24 14 3
24 15 15
24 16 96
24 17 74
24 18 35
24 19 57
24 20 96
24 21 68
24 22 6
24 23 14
25 0 42
25 1 71
25 2 14
25 3 27
25 4 2
25 5 38
25 6 68
25 7 68
25 8 97
25 9 1
25 10 5
25 11 9
25 12 17
25 13 9
25 14 24
25 15 57
25 16 36
25 17 89
25 18 77
25 19 31
25 20 9
25 21 17
25 22 45
25 23 34
25 24 52
26 0 72
26 1 84
26 2 36
26 3 43
26 4 3
26 5 23
26 6 86
26 7 6
26 8 32
26 9 49
26 10 18
26 11 54
26 12 72
26 13 11
26 14 13
26 15 98
26 16 36
26 17 25
26 18 27
26 19 69
26 20 71
26 21 66
26 22 11
26 23 94
26 24 22
26 25 80
27 0 77
27 1 20
27 2 44
27 3 47
27 4 80
27 5 87
27 6 82
27 7 76
27 8 24
27 9 96
27 10 11
27 11 25
27 12 20
27 13 11
27 14 96
27 15 64
27 16 44
27 17 94
27 18 16
27 19 36
27 20 69
27 21 79
27 22 64
27 23 67
27 24 86
27 25 6
27 26 7
28 0 49
28 1 22
28 2 92
28 3 87
28 4 89
28 5 26
28 6 3
28 7 81
28 8 88
28 9 85
28 10 56
28 11 49
28 12 10
28 13 84
28 14 60
28 15 58
28 16 50
28 17 22
28 18 77
28 19 40
28 20 2
28 21 56
28 22 72
28 23 30
28 24 92
28 25 31
28 26 64
28 27 91
29 0 35
29 1 7
29 2 16
29 3 29
29 4 13
29 5 12
29 6 10
29 7 45
29 8 4
29 9 69
29 10 6
29 11 75
29 12 93
29 13 69
29 14 80
29 15 33
29 16 45
29 17 9
29 18 82
29 19 38
29 20 39
29 21 97
29 22 72
29 23 100
29 24 72
29 25 2
29 26 6
29 27 88
29 28 88
30 0 6
30 1 100
30 2 25
30 3 100
30 4 70
30 5 85
30 6 55
30 7 6
30 8 36
30 9 31
30 10 96
30 11 99
30 12 26
30 13 100
30 14 72
30 15 54
30 16 100
30 17 59
30 18 78
30 19 22
30 20 87
30 21 69
30 22 36
30 23 54
30 24 18
30 25 24
30 26 32
30 27 68
30 28 93
30 29 4
31 0 49
31 1 2
31 2 90
31 3 70
31 4 36
31 5 24
31 6 88
31 7 17
31 8 77
31 9 2
31 10 51
31 11 56
31 12 48
31 13 40
31 14 15
31 15 6
31 16 83
31 17 44
31 18 61
31 19 91
31 20 75
31 21 74
31 22 70
31 23 98
31 24 92
31 25 86
31 26 89
31 27 34
31 28 87
31 29 80
31 30 67
32 0 75
32 1 18
32 2 2
32 3 23
32 4 15
32 5 27
32 6 69
32 7 66
32 8 44
32 9 24
32 10 20
32 11 75
32 12 18
32 13 81
32 14 98
32 15 11
32 16 1
32 17 49
32 18 28
32 19 19
32 20 87
32 21 29
32 22 46
32 23 33
32 24 39
32 25 68
32 26 82
32 27 13
32 28 98
32 29 65
32 30 16
32 31 54
33 0 47
33 1 13
33 2 59
33 3 61
33 4 45
33 5 97
33 6 14
33 7 68
33 8 49
33 9 31
33 10 32
33 11 60
33 12 100
33 13 11
33 14 66
33 15 18
33 16 40
33 17 7
33 18 86
33 19 85
33 20 85
33 21 25
33 22 8
33 23 46
33 24 64
33 25 12
33 26 47
33 27 54
33 28 14
33 29 91
33 30 9
33 31 47
33 32 80
34 0 31
34 1 62
34 2 39
34 3 54
34 4 7
34 5 74
34 6 86
34 7 75
34 8 5
34 9 86
34 10 53
34 11 49
34 12 61
34 13 76
34 14 30
34 15 71
34 16 55
34 17 23
34 18 85
34 19 65
34 20 90
34 21 71
34 22 38
34 23 67
34 24 28
34 25 74
34 26 8
34 27 7
34 28 75
34 29 40
34 30 59
34 31 85
34 32 13
34 33 38
35 0 38
35 1 40
35 2 44
35 3 11
35 4 1
35 5 45
35 6 85
35 7 18
35 8 62
35 9 92
35 10 20
35 11 11
35 12 100
35 13 46
35 14 20
35 15 86
35 16 21
35 17 70
35 18 64
35 19 4
35 20 60
35 21 78
35 22 37
35 23 47
35 24 65
35 25 37
35 26 78
35 27 51
35 28 98
35 29 37
35 30 12
35 31 60
35 32 50
35 33 16
35 34 91
36 0 53
36 1 52
36 2 75
36 3 14
36 4 69
36 5 23
36 6 55
36 7 12
36 8 24
36 9 3
36 10 41
36 11 19
36 12 83
36 13 41
36 14 15
36 15 63
36 16 48
36 17 54
36 18 78
36 19 43
36 20 64
36 21 72
36 22 20
36 23 78
36 24 60
36 25 23
36 26 94
36 27 54
36 28 69
36 29 43
36 30 28
36 31 88
36 32 8
36 33 99
36 34 90
36 35 2
37 0 97
37 1 66
37 2 71
37 3 62
37 4 52
37 5 2
37 6 73
37 7 30
37 8 92
37 9 100
37 10 5
37 11 44
37 12 32
37 13 16
37 14 16
37 15 2
37 16 52
37 17 5
37 18 39
37 19 39
37 20 76
37 21 19
37 22 7
37 23 7
37 24 89
37 25 29
37 26 72
37 27 100
37 28 81
37 29 91
37 30 41
37 31 91
37 32 99
37 33 78
37 34 2
37 35 62
37 36 32
38 0 18
38 1 10
38 2 55
38 3 84
38 4 31
38 5 52
38 6 70
38 7 89
38 8 63
38 9 24
38 10 84
38 11 79
38 12 32
38 13 63
38 14 71
38 15 17
38 16 56
38 17 41
38 18 48
38 19 39
38 20 25
38 21 5
38 22 83
38 23 88
38 24 31
38 25 21
38 26 21
38 27 21
38 28 72
38 29 54
38 30 32
38 31 17
38 32 87
38 33 90
38 34 83
38 35 32
38 36 6
38 37 91
39 0 80
39 1 72
39 2 100
39 3 32
39 4 42
39 5 75
39 6 76
39 7 63
39 8 98
39 9 25
39 10 57
39 11 87
39 12 24
39 13 53
39 14 25
39 15 65
39 16 46
39 17 72
39 18 40
39 19 77
39 20 97
39 21 77
39 22 49
39 23 90
39 24 93
39 25 90
39 26 34
39 27 37
39 28 63
39 29 32
39 30 2
39 31 92
39 32 49
39 33 69
39 34 82
39 35 86
39 36 73
39 37 40
39 38 84
